PARAMETER_FILE = even/LKH_uncomplete_graph/x10/seg/par/random152.par
PROBLEM_FILE = even/LKH_uncomplete_graph/x10/seg/mat/random152.tsp
Successes/Runs = 0/10
Cost.min = 969, Cost.avg = 969.00, Cost.max = 969
Gap.min = 0.0000%, Gap.avg = 0.0000%, Gap.max = 0.0000%
Trials.min = 1000, Trials.avg = 1000.0, Trials.max = 1000
Time.min = 0.24 sec., Time.avg = 0.27 sec., Time.max = 0.30 sec.
Time.total = 2.84 sec.
请按任意键继续. . . 
